set I := 1 2;
set J := 1 2;

# Coefficient matrix a(i,j)
param a :    1   2 :=
       1     3   4  #a[1,1]=3,a[1,2]=4
       2    -1  -1; #a[2,1]=-1,a[2,2]=-1

# RHS vector b(i)
param b :=
  1  1   #b[1]=1
  2 -2 ; #b[2]=-2

# Objective coefficients c(j)
param c :=
   1 2   #c[1]=2
   2 3 ; #c[2]=3